AES/1_5_4/ssaes_r1-20_c5_rw1_e4_f0_k1-20_aes_min_box_aes_mc_bidirectional/ExperimentMinisat_r18_k2cnf_2011-10-29-161144/Result
WARNING: for repeatability, setting FPU to use double precision
============================[ Problem Statistics ]=============================
|                                                                             |
|  Number of variables:          1644                                         |
|  Number of clauses:            6776                                         |
|  Parse time:                   0.00 s                                       |
|  Eliminated clauses:           0.02 Mb                                      |
|  Simplification time:          0.01 s                                       |
|                                                                             |
=============================[ Search Statistics ]==============================
| Conflicts  |          ORIGINAL         |          LEARNT          | Progress |
|            |    Vars  Clauses Literals |    Limit  Clauses Lit/Cl |          |
================================================================================
|        100 |    1152     5216    17336 |     1912      100     11 |  6.813 % |
|        250 |    1152     5216    17336 |     2103      250     15 |  6.813 % |
|        475 |    1152     5216    17336 |     2314      475     15 |  6.813 % |
|        812 |    1152     5216    17336 |     2545      812     15 |  6.813 % |
|       1318 |    1152     5216    17336 |     2800     1318     16 |  6.813 % |
|       2077 |    1152     5216    17336 |     3080     2077     17 |  6.813 % |
|       3216 |    1152     5216    17336 |     3388     1612     14 |  6.813 % |
|       4924 |    1152     5216    17336 |     3726     3320     18 |  6.813 % |
|       7486 |    1152     5216    17336 |     4099     2007     11 |  6.813 % |
|      11330 |    1152     5216    17336 |     4509     3727     17 |  6.813 % |
|      17096 |    1152     5216    17336 |     4960     2493     13 |  6.813 % |
|      25745 |    1152     5216    17336 |     5456     3473     15 |  6.813 % |
|      38719 |    1152     5216    17336 |     6002     5229     16 |  6.813 % |
|      58180 |    1152     5216    17336 |     6602     3147     12 |  6.813 % |
|      87372 |    1152     5216    17336 |     7262     5296     16 |  6.813 % |
|     131161 |    1152     5216    17336 |     7989     4622     15 |  6.813 % |
|     196845 |    1152     5216    17336 |     8788     5137     15 |  6.813 % |
|     295371 |    1152     5216    17336 |     9666     5334     15 |  6.813 % |
|     443160 |    1152     5216    17336 |    10633     5879     16 |  6.813 % |
|     664843 |    1152     5216    17336 |    11696     6417     16 |  6.813 % |
|     997368 |    1152     5216    17336 |    12866     7193     14 |  6.813 % |
|    1496156 |    1152     5216    17336 |    14153    11250     18 |  6.813 % |
|    2244338 |    1152     5216    17336 |    15568     8396     14 |  6.813 % |
|    3366612 |    1152     5216    17336 |    17125    14250     19 |  6.813 % |
===============================================================================
restarts              : 6545
conflicts             : 3739369        (9024 /sec)
decisions             : 4174272        (0.00 % random) (10074 /sec)
propagations          : 1701247439     (4105713 /sec)
conflict literals     : 82908938       (57.03 % deleted)
Memory used           : 13.00 MB
CPU time              : 414.361 s

SATISFIABLE
